342 5
10 10 10 10 10 

0 0 0 0 0 0 5 2 14 26 38 50 
0 0 0 0 0 0 4 3 5 11 12 
1 0 0 0 0 1 2 8 4 
10 0 0 0 0 2 2 10 6 
8 0 0 0 0 3 2 10 7 
8 0 0 0 0 3 1 7 
3 0 0 0 0 3 1 9 
6 0 0 0 0 2 1 10 
6 0 0 0 0 4 2 13 43 
2 0 0 0 0 2 1 13 
2 0 0 0 0 3 1 13 
9 0 0 0 0 2 1 13 
0 0 0 0 0 0 1 62 
0 0 0 0 0 0 5 15 17 19 20 22 
1 0 0 0 1 0 2 24 16 
5 0 0 0 4 0 2 18 220 
9 0 0 0 3 0 2 24 23 
7 0 0 0 1 0 1 21 
8 0 0 0 3 0 1 21 
8 0 0 0 3 0 1 21 
8 0 0 0 2 0 1 23 
3 0 0 0 2 0 1 23 
4 0 0 0 2 0 1 25 
7 0 0 0 4 0 1 25 
0 0 0 0 0 0 1 62 
0 0 0 0 0 0 2 27 28 
10 0 1 0 0 0 2 30 29 
8 0 1 0 0 0 2 31 30 
4 0 2 0 0 0 4 36 35 31 328 
4 0 4 0 0 0 4 36 35 34 33 
10 0 3 0 0 0 2 34 32 
3 0 3 0 0 0 1 33 
8 0 2 0 0 0 1 37 
10 0 3 0 0 0 1 37 
5 0 3 0 0 0 1 37 
5 0 3 0 0 0 1 37 
0 0 0 0 0 0 1 62 
0 0 0 0 0 0 2 39 42 
6 0 0 0 0 1 3 48 41 40 
2 0 0 0 0 3 2 47 44 
2 0 0 0 0 2 3 45 43 331 
1 0 0 0 0 2 2 45 43 
10 0 0 0 0 3 2 47 46 
2 0 0 0 0 3 1 45 
5 0 0 0 0 2 1 46 
1 0 0 0 0 1 1 49 
5 0 0 0 0 3 1 49 
8 0 0 0 0 5 1 49 
0 0 0 0 0 0 1 62 
0 0 0 0 0 0 3 51 54 56 
6 0 0 0 1 0 1 52 
6 0 0 0 3 0 2 60 53 
8 0 0 0 5 0 3 59 57 55 
10 0 0 0 3 0 3 59 58 57 
5 0 0 0 4 0 1 58 
9 0 0 0 3 0 1 57 
5 0 0 0 1 0 1 61 
4 0 0 0 1 0 1 61 
8 0 0 0 2 0 2 61 196 
9 0 0 0 2 0 1 61 
0 0 0 0 0 0 1 62 
0 0 0 0 0 0 5 63 95 127 159 191 
0 0 0 0 0 0 3 64 76 93 
9 0 1 0 1 1 2 92 65 
8 0 2 0 1 1 2 90 66 
3 0 2 0 4 3 1 67 
10 0 1 0 1 2 3 89 87 68 
5 0 2 0 3 3 2 88 69 
2 0 2 0 2 1 4 86 85 70 299 
9 0 3 0 3 3 1 71 
7 0 3 0 2 2 2 84 72 
5 0 1 0 2 4 1 73 
6 0 1 0 3 2 1 74 
6 0 4 0 4 2 2 83 75 
5 0 2 0 1 4 4 82 81 80 77 
7 0 2 0 3 2 4 91 87 85 79 
7 0 3 0 3 4 1 78 
7 0 2 0 5 5 1 79 
8 0 6 0 4 1 1 94 
3 0 1 0 3 2 1 94 
9 0 3 0 4 1 1 94 
6 0 4 0 2 2 1 94 
9 0 2 0 4 3 1 94 
8 0 2 0 2 3 1 94 
5 0 2 0 1 1 1 94 
5 0 6 0 1 1 1 94 
8 0 3 0 2 3 1 94 
5 0 2 0 2 3 1 94 
9 0 1 0 1 4 1 94 
1 0 2 0 2 2 1 94 
1 0 3 0 2 3 1 94 
6 0 4 0 3 2 1 94 
9 0 3 0 4 5 1 94 
0 0 0 0 0 0 1 317 
0 0 0 0 0 0 3 96 110 125 
5 0 1 1 1 0 3 124 123 97 
5 0 2 2 4 0 2 121 98 
9 0 2 2 2 0 2 120 99 
9 0 3 1 4 0 1 100 
5 0 4 1 3 0 3 119 118 101 
5 0 4 3 1 0 2 117 102 
3 0 3 3 2 0 1 103 
9 0 1 2 3 0 2 116 104 
3 0 3 4 2 0 2 115 105 
6 0 3 5 1 0 2 114 106 
5 0 2 4 1 0 2 113 107 
8 0 3 1 3 0 2 112 108 
5 0 4 2 1 0 1 109 
3 0 2 1 4 0 1 111 
6 0 1 3 1 0 1 122 
4 0 2 2 2 0 1 126 
6 0 5 3 1 0 1 126 
4 0 3 1 5 0 2 126 211 
10 0 1 1 3 0 1 126 
3 0 2 3 3 0 1 126 
7 0 2 3 3 0 1 126 
10 0 2 1 1 0 1 126 
10 0 3 5 2 0 1 126 
2 0 3 2 3 0 1 126 
6 0 2 5 2 0 1 126 
7 0 3 3 3 0 1 126 
3 0 2 6 4 0 1 126 
1 0 2 2 4 0 1 126 
3 0 3 1 3 0 1 126 
8 0 2 2 3 0 1 126 
0 0 0 0 0 0 1 317 
0 0 0 0 0 0 3 128 129 131 
8 1 1 0 1 0 2 136 130 
9 1 4 0 3 0 2 136 130 
3 5 3 0 2 0 2 135 132 
2 2 3 0 1 0 3 139 136 135 
5 4 3 0 6 0 2 137 133 
2 2 4 0 3 0 1 134 
5 1 2 0 3 0 3 144 139 138 
4 2 3 0 1 0 1 137 
8 2 4 0 1 0 1 137 
6 1 2 0 1 0 2 144 138 
10 4 7 0 4 0 1 140 
4 2 2 0 3 0 1 140 
7 3 5 0 2 0 2 145 141 
1 2 4 0 3 0 2 143 142 
1 2 3 0 4 0 2 149 146 
9 1 4 0 2 0 2 149 146 
4 4 1 0 1 0 1 145 
9 3 1 0 4 0 1 146 
10 4 1 0 2 0 2 147 198 
6 3 1 0 1 0 1 148 
3 2 2 0 1 0 2 152 150 
9 3 2 0 2 0 1 150 
4 5 2 0 5 0 5 157 156 155 153 151 
2 2 1 0 3 0 1 154 
10 3 2 0 1 0 1 153 
2 4 1 0 4 0 1 158 
3 1 2 0 3 0 1 158 
4 2 2 0 4 0 1 158 
4 2 2 0 3 0 1 158 
6 2 1 0 1 0 1 158 
0 0 0 0 0 0 1 317 
0 0 0 0 0 0 3 160 161 189 
5 0 0 1 1 1 2 188 162 
6 0 0 2 1 1 2 188 162 
8 0 0 4 3 3 2 166 163 
9 0 0 2 4 4 2 170 164 
9 0 0 3 1 2 2 187 165 
3 0 0 2 1 1 2 177 167 
9 0 0 2 2 3 4 173 170 168 253 
8 0 0 1 3 3 2 173 168 
2 0 0 5 3 1 2 181 169 
2 0 0 2 3 1 2 178 171 
5 0 0 5 4 5 2 181 171 
5 0 0 5 2 2 1 172 
7 0 0 1 1 3 2 186 174 
9 0 0 1 4 4 2 186 175 
9 0 0 1 2 2 1 175 
1 0 0 4 3 3 3 184 180 176 
2 0 0 1 2 3 3 185 183 179 
2 0 0 1 2 1 2 184 179 
3 0 0 2 4 2 1 179 
1 0 0 2 2 3 1 182 
10 0 0 2 6 3 1 183 
4 0 0 2 2 3 1 186 
9 0 0 5 1 1 1 190 
2 0 0 2 5 4 1 190 
4 0 0 2 2 2 1 190 
10 0 0 3 3 2 1 190 
7 0 0 3 1 2 1 190 
8 0 0 4 2 5 1 190 
1 0 0 3 1 3 1 190 
5 0 0 2 4 2 1 190 
0 0 0 0 0 0 1 317 
0 0 0 0 0 0 4 192 194 197 198 
5 0 0 0 0 1 2 196 193 
8 0 0 0 0 3 1 195 
3 0 0 0 0 3 1 195 
10 0 0 0 0 1 2 201 199 
1 0 0 0 0 3 2 201 199 
1 0 0 0 0 2 2 201 199 
3 0 0 0 0 5 2 201 200 
9 0 0 0 0 1 2 200 231 
8 0 0 0 0 3 1 202 
4 0 0 0 0 3 1 202 
0 0 0 0 0 0 4 203 215 237 259 
0 0 0 0 0 0 4 204 207 209 213 
8 1 0 0 0 0 2 212 205 
8 2 0 0 0 0 2 211 206 
7 2 0 0 0 0 2 208 243 
9 3 0 0 0 0 1 208 
2 2 0 0 0 0 1 210 
4 2 0 0 0 0 1 210 
3 5 0 0 0 0 1 214 
6 4 0 0 0 0 1 214 
10 2 0 0 0 0 1 214 
7 2 0 0 0 0 1 214 
0 0 0 0 0 0 3 281 293 305 
0 0 0 0 0 0 2 216 235 
7 1 0 1 0 0 1 217 
4 1 0 1 0 0 2 220 218 
10 2 0 2 0 0 1 219 
9 3 0 1 0 0 2 229 221 
5 5 0 2 0 0 1 221 
3 2 0 3 0 0 4 227 226 224 222 
10 4 0 2 0 0 1 223 
2 3 0 3 0 0 2 233 225 
2 2 0 1 0 0 2 233 225 
8 2 0 5 0 0 2 232 228 
6 1 0 3 0 0 2 232 228 
8 6 0 3 0 0 3 232 228 307 
4 3 0 4 0 0 2 231 230 
5 1 0 4 0 0 1 234 
10 4 0 1 0 0 1 236 
1 1 0 5 0 0 1 236 
8 2 0 3 0 0 1 236 
10 2 0 1 0 0 1 236 
4 2 0 3 0 0 1 236 
1 3 0 2 0 0 1 236 
0 0 0 0 0 0 1 317 
0 0 0 0 0 0 2 238 239 
8 0 1 0 0 1 2 244 240 
9 0 4 0 0 2 3 252 243 241 
5 0 3 0 0 3 2 252 242 
1 0 4 0 0 2 3 247 245 244 
3 0 1 0 0 2 2 247 243 
8 0 1 0 0 1 1 245 
6 0 3 0 0 2 4 255 251 249 248 
6 0 4 0 0 4 1 246 
8 0 4 0 0 5 4 255 254 251 249 
10 0 2 0 0 3 4 255 254 251 249 
6 0 1 0 0 4 2 254 253 
7 0 3 0 0 2 2 250 326 
10 0 3 0 0 5 1 253 
4 0 3 0 0 1 1 253 
4 0 2 0 0 2 1 254 
1 0 4 0 0 3 1 256 
1 0 2 0 0 2 1 256 
8 0 2 0 0 2 1 257 
1 0 2 0 0 3 1 258 
10 0 1 0 0 1 1 258 
0 0 0 0 0 0 1 317 
0 0 0 0 0 0 3 260 261 267 
10 1 1 0 0 0 3 270 269 262 
4 2 2 0 0 0 3 270 265 264 
5 3 2 0 0 0 1 263 
6 3 1 0 0 0 3 274 268 265 
8 4 2 0 0 0 4 274 272 269 268 
2 1 1 0 0 0 2 266 311 
7 1 2 0 0 0 2 272 271 
10 2 1 0 0 0 1 268 
10 2 3 0 0 0 1 271 
8 2 1 0 0 0 1 271 
7 2 2 0 0 0 1 272 
2 2 2 0 0 0 1 273 
5 3 1 0 0 0 1 273 
9 2 4 0 0 0 2 277 275 
5 2 6 0 0 0 2 277 275 
2 3 2 0 0 0 2 278 276 
5 5 4 0 0 0 1 279 
8 5 3 0 0 0 1 278 
8 3 7 0 0 0 1 280 
5 2 3 0 0 0 1 280 
0 0 0 0 0 0 1 317 
0 0 0 0 0 0 6 282 284 286 288 290 291 
2 0 1 0 0 0 1 283 
4 0 4 0 0 0 1 285 
7 0 2 0 0 0 1 285 
6 0 3 0 0 0 1 287 
4 0 3 0 0 0 1 287 
5 0 2 0 0 0 1 289 
9 0 4 0 0 0 1 289 
3 0 4 0 0 0 2 292 340 
6 0 1 0 0 0 1 292 
4 0 1 0 0 0 1 292 
0 0 0 0 0 0 1 317 
0 0 0 0 0 0 4 294 295 298 303 
6 0 1 0 0 0 2 302 297 
5 0 3 0 0 0 1 296 
3 0 4 0 0 0 2 297 333 
4 0 2 0 0 0 2 301 299 
7 0 1 0 0 0 2 301 299 
9 0 2 0 0 0 1 300 
5 0 3 0 0 0 1 304 
6 0 2 0 0 0 1 304 
9 0 4 0 0 0 1 304 
8 0 3 0 0 0 1 304 
0 0 0 0 0 0 1 317 
0 0 0 0 0 0 1 306 
9 0 0 0 1 0 3 308 307 339 
2 0 0 0 1 0 3 312 310 309 
8 0 0 0 1 0 3 312 310 309 
6 0 0 0 3 0 3 315 314 311 
6 0 0 0 1 0 1 311 
8 0 0 0 2 0 1 313 
2 0 0 0 2 0 1 313 
4 0 0 0 5 0 1 316 
9 0 0 0 5 0 1 316 
1 0 0 0 4 0 1 316 
0 0 0 0 0 0 1 317 
0 0 0 0 0 0 2 318 330 
0 0 0 0 0 0 3 319 320 324 
8 0 0 0 0 1 1 321 
4 0 0 0 0 2 1 321 
2 0 0 0 0 2 2 323 322 
9 0 0 0 0 5 3 328 327 325 
10 0 0 0 0 3 3 328 327 326 
3 0 0 0 0 4 2 327 326 
7 0 0 0 0 1 1 326 
1 0 0 0 0 3 2 329 340 
1 0 0 0 0 1 1 329 
8 0 0 0 0 3 1 329 
0 0 0 0 0 0 1 342 
0 0 0 0 0 0 1 331 
4 1 0 0 0 0 2 333 332 
2 4 0 0 0 0 2 335 334 
7 2 0 0 0 0 2 337 335 
8 2 0 0 0 0 3 340 337 336 
3 2 0 0 0 0 2 340 336 
7 4 0 0 0 0 2 339 338 
3 2 0 0 0 0 2 339 338 
3 4 0 0 0 0 1 341 
9 3 0 0 0 0 1 341 
5 1 0 0 0 0 1 341 
0 0 0 0 0 0 1 342 
0 0 0 0 0 0 0 
